(set-logic QF_LRA)
(declare-fun T1 () Real )
(declare-fun T2 () Real )
(declare-fun T3 () Real )
(declare-fun T4 () Real )
(declare-fun T5 () Real )
(declare-fun T6 () Real )
(declare-fun T7 () Real )
(declare-fun T8 () Real )
(declare-fun Z () Real )
(declare-fun k () Real )
(assert (let
(( $goal (>= Z k) ))
(let
((
$phi ( and 
(or ( <= ( + T1 40 ) T2 ) ( <= ( + T2 31 ) T1 ) )
(or ( <= ( + T1 89 )  ( + T2 31 ) ) ( <= ( + T2 56 )( + T1 40 ) ) )
(or ( <= ( + T1 183 )  ( + T2 56 ) ) ( <= ( + T2 86 )( + T1 89 ) ) )
(or ( <= ( + T1 234 )  ( + T2 86 ) ) ( <= ( + T2 90 )( + T1 183 ) ) )
(or ( <= ( + T1 279 )  ( + T2 90 ) ) ( <= ( + T2 111 )( + T1 234 ) ) )
(or ( <= ( + T1 371 )  ( + T2 111 ) ) ( <= ( + T2 157 )( + T1 279 ) ) )
(or ( <= ( + T1 40 ) T3 ) ( <= ( + T3 50 ) T1 ) )
(or ( <= ( + T1 89 )  ( + T3 50 ) ) ( <= ( + T3 119 )( + T1 40 ) ) )
(or ( <= ( + T1 183 )  ( + T3 119 ) ) ( <= ( + T3 200 )( + T1 89 ) ) )
(or ( <= ( + T1 234 )  ( + T3 200 ) ) ( <= ( + T3 229 )( + T1 183 ) ) )
(or ( <= ( + T1 279 )  ( + T3 229 ) ) ( <= ( + T3 298 )( + T1 234 ) ) )
(or ( <= ( + T1 371 )  ( + T3 298 ) ) ( <= ( + T3 321 )( + T1 279 ) ) )
(or ( <= ( + T1 40 ) T4 ) ( <= ( + T4 27 ) T1 ) )
(or ( <= ( + T1 89 )  ( + T4 27 ) ) ( <= ( + T4 34 )( + T1 40 ) ) )
(or ( <= ( + T1 183 )  ( + T4 34 ) ) ( <= ( + T4 38 )( + T1 89 ) ) )
(or ( <= ( + T1 234 )  ( + T4 38 ) ) ( <= ( + T4 83 )( + T1 183 ) ) )
(or ( <= ( + T1 279 )  ( + T4 83 ) ) ( <= ( + T4 89 )( + T1 234 ) ) )
(or ( <= ( + T1 371 )  ( + T4 89 ) ) ( <= ( + T4 183 )( + T1 279 ) ) )
(or ( <= ( + T1 40 ) T5 ) ( <= ( + T5 15 ) T1 ) )
(or ( <= ( + T1 89 )  ( + T5 15 ) ) ( <= ( + T5 61 )( + T1 40 ) ) )
(or ( <= ( + T1 183 )  ( + T5 61 ) ) ( <= ( + T5 117 )( + T1 89 ) ) )
(or ( <= ( + T1 234 )  ( + T5 117 ) ) ( <= ( + T5 176 )( + T1 183 ) ) )
(or ( <= ( + T1 279 )  ( + T5 176 ) ) ( <= ( + T5 272 )( + T1 234 ) ) )
(or ( <= ( + T1 371 )  ( + T5 272 ) ) ( <= ( + T5 351 )( + T1 279 ) ) )
(or ( <= ( + T1 40 ) T6 ) ( <= ( + T6 94 ) T1 ) )
(or ( <= ( + T1 89 )  ( + T6 94 ) ) ( <= ( + T6 130 )( + T1 40 ) ) )
(or ( <= ( + T1 183 )  ( + T6 130 ) ) ( <= ( + T6 209 )( + T1 89 ) ) )
(or ( <= ( + T1 234 )  ( + T6 209 ) ) ( <= ( + T6 296 )( + T1 183 ) ) )
(or ( <= ( + T1 279 )  ( + T6 296 ) ) ( <= ( + T6 334 )( + T1 234 ) ) )
(or ( <= ( + T1 371 )  ( + T6 334 ) ) ( <= ( + T6 358 )( + T1 279 ) ) )
(or ( <= ( + T1 40 ) T7 ) ( <= ( + T7 78 ) T1 ) )
(or ( <= ( + T1 89 )  ( + T7 78 ) ) ( <= ( + T7 147 )( + T1 40 ) ) )
(or ( <= ( + T1 183 )  ( + T7 147 ) ) ( <= ( + T7 247 )( + T1 89 ) ) )
(or ( <= ( + T1 234 )  ( + T7 247 ) ) ( <= ( + T7 306 )( + T1 183 ) ) )
(or ( <= ( + T1 279 )  ( + T7 306 ) ) ( <= ( + T7 330 )( + T1 234 ) ) )
(or ( <= ( + T1 371 )  ( + T7 330 ) ) ( <= ( + T7 402 )( + T1 279 ) ) )
(or ( <= ( + T1 40 ) T8 ) ( <= ( + T8 4 ) T1 ) )
(or ( <= ( + T1 89 )  ( + T8 4 ) ) ( <= ( + T8 29 )( + T1 40 ) ) )
(or ( <= ( + T1 183 )  ( + T8 29 ) ) ( <= ( + T8 70 )( + T1 89 ) ) )
(or ( <= ( + T1 234 )  ( + T8 70 ) ) ( <= ( + T8 154 )( + T1 183 ) ) )
(or ( <= ( + T1 279 )  ( + T8 154 ) ) ( <= ( + T8 207 )( + T1 234 ) ) )
(or ( <= ( + T1 371 )  ( + T8 207 ) ) ( <= ( + T8 268 )( + T1 279 ) ) )
(or ( <= ( + T2 31 ) T3 ) ( <= ( + T3 50 ) T2 ) )
(or ( <= ( + T2 56 )  ( + T3 50 ) ) ( <= ( + T3 119 )( + T2 31 ) ) )
(or ( <= ( + T2 86 )  ( + T3 119 ) ) ( <= ( + T3 200 )( + T2 56 ) ) )
(or ( <= ( + T2 90 )  ( + T3 200 ) ) ( <= ( + T3 229 )( + T2 86 ) ) )
(or ( <= ( + T2 111 )  ( + T3 229 ) ) ( <= ( + T3 298 )( + T2 90 ) ) )
(or ( <= ( + T2 157 )  ( + T3 298 ) ) ( <= ( + T3 321 )( + T2 111 ) ) )
(or ( <= ( + T2 31 ) T4 ) ( <= ( + T4 27 ) T2 ) )
(or ( <= ( + T2 56 )  ( + T4 27 ) ) ( <= ( + T4 34 )( + T2 31 ) ) )
(or ( <= ( + T2 86 )  ( + T4 34 ) ) ( <= ( + T4 38 )( + T2 56 ) ) )
(or ( <= ( + T2 90 )  ( + T4 38 ) ) ( <= ( + T4 83 )( + T2 86 ) ) )
(or ( <= ( + T2 111 )  ( + T4 83 ) ) ( <= ( + T4 89 )( + T2 90 ) ) )
(or ( <= ( + T2 157 )  ( + T4 89 ) ) ( <= ( + T4 183 )( + T2 111 ) ) )
(or ( <= ( + T2 31 ) T5 ) ( <= ( + T5 15 ) T2 ) )
(or ( <= ( + T2 56 )  ( + T5 15 ) ) ( <= ( + T5 61 )( + T2 31 ) ) )
(or ( <= ( + T2 86 )  ( + T5 61 ) ) ( <= ( + T5 117 )( + T2 56 ) ) )
(or ( <= ( + T2 90 )  ( + T5 117 ) ) ( <= ( + T5 176 )( + T2 86 ) ) )
(or ( <= ( + T2 111 )  ( + T5 176 ) ) ( <= ( + T5 272 )( + T2 90 ) ) )
(or ( <= ( + T2 157 )  ( + T5 272 ) ) ( <= ( + T5 351 )( + T2 111 ) ) )
(or ( <= ( + T2 31 ) T6 ) ( <= ( + T6 94 ) T2 ) )
(or ( <= ( + T2 56 )  ( + T6 94 ) ) ( <= ( + T6 130 )( + T2 31 ) ) )
(or ( <= ( + T2 86 )  ( + T6 130 ) ) ( <= ( + T6 209 )( + T2 56 ) ) )
(or ( <= ( + T2 90 )  ( + T6 209 ) ) ( <= ( + T6 296 )( + T2 86 ) ) )
(or ( <= ( + T2 111 )  ( + T6 296 ) ) ( <= ( + T6 334 )( + T2 90 ) ) )
(or ( <= ( + T2 157 )  ( + T6 334 ) ) ( <= ( + T6 358 )( + T2 111 ) ) )
(or ( <= ( + T2 31 ) T7 ) ( <= ( + T7 78 ) T2 ) )
(or ( <= ( + T2 56 )  ( + T7 78 ) ) ( <= ( + T7 147 )( + T2 31 ) ) )
(or ( <= ( + T2 86 )  ( + T7 147 ) ) ( <= ( + T7 247 )( + T2 56 ) ) )
(or ( <= ( + T2 90 )  ( + T7 247 ) ) ( <= ( + T7 306 )( + T2 86 ) ) )
(or ( <= ( + T2 111 )  ( + T7 306 ) ) ( <= ( + T7 330 )( + T2 90 ) ) )
(or ( <= ( + T2 157 )  ( + T7 330 ) ) ( <= ( + T7 402 )( + T2 111 ) ) )
(or ( <= ( + T2 31 ) T8 ) ( <= ( + T8 4 ) T2 ) )
(or ( <= ( + T2 56 )  ( + T8 4 ) ) ( <= ( + T8 29 )( + T2 31 ) ) )
(or ( <= ( + T2 86 )  ( + T8 29 ) ) ( <= ( + T8 70 )( + T2 56 ) ) )
(or ( <= ( + T2 90 )  ( + T8 70 ) ) ( <= ( + T8 154 )( + T2 86 ) ) )
(or ( <= ( + T2 111 )  ( + T8 154 ) ) ( <= ( + T8 207 )( + T2 90 ) ) )
(or ( <= ( + T2 157 )  ( + T8 207 ) ) ( <= ( + T8 268 )( + T2 111 ) ) )
(or ( <= ( + T3 50 ) T4 ) ( <= ( + T4 27 ) T3 ) )
(or ( <= ( + T3 119 )  ( + T4 27 ) ) ( <= ( + T4 34 )( + T3 50 ) ) )
(or ( <= ( + T3 200 )  ( + T4 34 ) ) ( <= ( + T4 38 )( + T3 119 ) ) )
(or ( <= ( + T3 229 )  ( + T4 38 ) ) ( <= ( + T4 83 )( + T3 200 ) ) )
(or ( <= ( + T3 298 )  ( + T4 83 ) ) ( <= ( + T4 89 )( + T3 229 ) ) )
(or ( <= ( + T3 321 )  ( + T4 89 ) ) ( <= ( + T4 183 )( + T3 298 ) ) )
(or ( <= ( + T3 50 ) T5 ) ( <= ( + T5 15 ) T3 ) )
(or ( <= ( + T3 119 )  ( + T5 15 ) ) ( <= ( + T5 61 )( + T3 50 ) ) )
(or ( <= ( + T3 200 )  ( + T5 61 ) ) ( <= ( + T5 117 )( + T3 119 ) ) )
(or ( <= ( + T3 229 )  ( + T5 117 ) ) ( <= ( + T5 176 )( + T3 200 ) ) )
(or ( <= ( + T3 298 )  ( + T5 176 ) ) ( <= ( + T5 272 )( + T3 229 ) ) )
(or ( <= ( + T3 321 )  ( + T5 272 ) ) ( <= ( + T5 351 )( + T3 298 ) ) )
(or ( <= ( + T3 50 ) T6 ) ( <= ( + T6 94 ) T3 ) )
(or ( <= ( + T3 119 )  ( + T6 94 ) ) ( <= ( + T6 130 )( + T3 50 ) ) )
(or ( <= ( + T3 200 )  ( + T6 130 ) ) ( <= ( + T6 209 )( + T3 119 ) ) )
(or ( <= ( + T3 229 )  ( + T6 209 ) ) ( <= ( + T6 296 )( + T3 200 ) ) )
(or ( <= ( + T3 298 )  ( + T6 296 ) ) ( <= ( + T6 334 )( + T3 229 ) ) )
(or ( <= ( + T3 321 )  ( + T6 334 ) ) ( <= ( + T6 358 )( + T3 298 ) ) )
(or ( <= ( + T3 50 ) T7 ) ( <= ( + T7 78 ) T3 ) )
(or ( <= ( + T3 119 )  ( + T7 78 ) ) ( <= ( + T7 147 )( + T3 50 ) ) )
(or ( <= ( + T3 200 )  ( + T7 147 ) ) ( <= ( + T7 247 )( + T3 119 ) ) )
(or ( <= ( + T3 229 )  ( + T7 247 ) ) ( <= ( + T7 306 )( + T3 200 ) ) )
(or ( <= ( + T3 298 )  ( + T7 306 ) ) ( <= ( + T7 330 )( + T3 229 ) ) )
(or ( <= ( + T3 321 )  ( + T7 330 ) ) ( <= ( + T7 402 )( + T3 298 ) ) )
(or ( <= ( + T3 50 ) T8 ) ( <= ( + T8 4 ) T3 ) )
(or ( <= ( + T3 119 )  ( + T8 4 ) ) ( <= ( + T8 29 )( + T3 50 ) ) )
(or ( <= ( + T3 200 )  ( + T8 29 ) ) ( <= ( + T8 70 )( + T3 119 ) ) )
(or ( <= ( + T3 229 )  ( + T8 70 ) ) ( <= ( + T8 154 )( + T3 200 ) ) )
(or ( <= ( + T3 298 )  ( + T8 154 ) ) ( <= ( + T8 207 )( + T3 229 ) ) )
(or ( <= ( + T3 321 )  ( + T8 207 ) ) ( <= ( + T8 268 )( + T3 298 ) ) )
(or ( <= ( + T4 27 ) T5 ) ( <= ( + T5 15 ) T4 ) )
(or ( <= ( + T4 34 )  ( + T5 15 ) ) ( <= ( + T5 61 )( + T4 27 ) ) )
(or ( <= ( + T4 38 )  ( + T5 61 ) ) ( <= ( + T5 117 )( + T4 34 ) ) )
(or ( <= ( + T4 83 )  ( + T5 117 ) ) ( <= ( + T5 176 )( + T4 38 ) ) )
(or ( <= ( + T4 89 )  ( + T5 176 ) ) ( <= ( + T5 272 )( + T4 83 ) ) )
(or ( <= ( + T4 183 )  ( + T5 272 ) ) ( <= ( + T5 351 )( + T4 89 ) ) )
(or ( <= ( + T4 27 ) T6 ) ( <= ( + T6 94 ) T4 ) )
(or ( <= ( + T4 34 )  ( + T6 94 ) ) ( <= ( + T6 130 )( + T4 27 ) ) )
(or ( <= ( + T4 38 )  ( + T6 130 ) ) ( <= ( + T6 209 )( + T4 34 ) ) )
(or ( <= ( + T4 83 )  ( + T6 209 ) ) ( <= ( + T6 296 )( + T4 38 ) ) )
(or ( <= ( + T4 89 )  ( + T6 296 ) ) ( <= ( + T6 334 )( + T4 83 ) ) )
(or ( <= ( + T4 183 )  ( + T6 334 ) ) ( <= ( + T6 358 )( + T4 89 ) ) )
(or ( <= ( + T4 27 ) T7 ) ( <= ( + T7 78 ) T4 ) )
(or ( <= ( + T4 34 )  ( + T7 78 ) ) ( <= ( + T7 147 )( + T4 27 ) ) )
(or ( <= ( + T4 38 )  ( + T7 147 ) ) ( <= ( + T7 247 )( + T4 34 ) ) )
(or ( <= ( + T4 83 )  ( + T7 247 ) ) ( <= ( + T7 306 )( + T4 38 ) ) )
(or ( <= ( + T4 89 )  ( + T7 306 ) ) ( <= ( + T7 330 )( + T4 83 ) ) )
(or ( <= ( + T4 183 )  ( + T7 330 ) ) ( <= ( + T7 402 )( + T4 89 ) ) )
(or ( <= ( + T4 27 ) T8 ) ( <= ( + T8 4 ) T4 ) )
(or ( <= ( + T4 34 )  ( + T8 4 ) ) ( <= ( + T8 29 )( + T4 27 ) ) )
(or ( <= ( + T4 38 )  ( + T8 29 ) ) ( <= ( + T8 70 )( + T4 34 ) ) )
(or ( <= ( + T4 83 )  ( + T8 70 ) ) ( <= ( + T8 154 )( + T4 38 ) ) )
(or ( <= ( + T4 89 )  ( + T8 154 ) ) ( <= ( + T8 207 )( + T4 83 ) ) )
(or ( <= ( + T4 183 )  ( + T8 207 ) ) ( <= ( + T8 268 )( + T4 89 ) ) )
(or ( <= ( + T5 15 ) T6 ) ( <= ( + T6 94 ) T5 ) )
(or ( <= ( + T5 61 )  ( + T6 94 ) ) ( <= ( + T6 130 )( + T5 15 ) ) )
(or ( <= ( + T5 117 )  ( + T6 130 ) ) ( <= ( + T6 209 )( + T5 61 ) ) )
(or ( <= ( + T5 176 )  ( + T6 209 ) ) ( <= ( + T6 296 )( + T5 117 ) ) )
(or ( <= ( + T5 272 )  ( + T6 296 ) ) ( <= ( + T6 334 )( + T5 176 ) ) )
(or ( <= ( + T5 351 )  ( + T6 334 ) ) ( <= ( + T6 358 )( + T5 272 ) ) )
(or ( <= ( + T5 15 ) T7 ) ( <= ( + T7 78 ) T5 ) )
(or ( <= ( + T5 61 )  ( + T7 78 ) ) ( <= ( + T7 147 )( + T5 15 ) ) )
(or ( <= ( + T5 117 )  ( + T7 147 ) ) ( <= ( + T7 247 )( + T5 61 ) ) )
(or ( <= ( + T5 176 )  ( + T7 247 ) ) ( <= ( + T7 306 )( + T5 117 ) ) )
(or ( <= ( + T5 272 )  ( + T7 306 ) ) ( <= ( + T7 330 )( + T5 176 ) ) )
(or ( <= ( + T5 351 )  ( + T7 330 ) ) ( <= ( + T7 402 )( + T5 272 ) ) )
(or ( <= ( + T5 15 ) T8 ) ( <= ( + T8 4 ) T5 ) )
(or ( <= ( + T5 61 )  ( + T8 4 ) ) ( <= ( + T8 29 )( + T5 15 ) ) )
(or ( <= ( + T5 117 )  ( + T8 29 ) ) ( <= ( + T8 70 )( + T5 61 ) ) )
(or ( <= ( + T5 176 )  ( + T8 70 ) ) ( <= ( + T8 154 )( + T5 117 ) ) )
(or ( <= ( + T5 272 )  ( + T8 154 ) ) ( <= ( + T8 207 )( + T5 176 ) ) )
(or ( <= ( + T5 351 )  ( + T8 207 ) ) ( <= ( + T8 268 )( + T5 272 ) ) )
(or ( <= ( + T6 94 ) T7 ) ( <= ( + T7 78 ) T6 ) )
(or ( <= ( + T6 130 )  ( + T7 78 ) ) ( <= ( + T7 147 )( + T6 94 ) ) )
(or ( <= ( + T6 209 )  ( + T7 147 ) ) ( <= ( + T7 247 )( + T6 130 ) ) )
(or ( <= ( + T6 296 )  ( + T7 247 ) ) ( <= ( + T7 306 )( + T6 209 ) ) )
(or ( <= ( + T6 334 )  ( + T7 306 ) ) ( <= ( + T7 330 )( + T6 296 ) ) )
(or ( <= ( + T6 358 )  ( + T7 330 ) ) ( <= ( + T7 402 )( + T6 334 ) ) )
(or ( <= ( + T6 94 ) T8 ) ( <= ( + T8 4 ) T6 ) )
(or ( <= ( + T6 130 )  ( + T8 4 ) ) ( <= ( + T8 29 )( + T6 94 ) ) )
(or ( <= ( + T6 209 )  ( + T8 29 ) ) ( <= ( + T8 70 )( + T6 130 ) ) )
(or ( <= ( + T6 296 )  ( + T8 70 ) ) ( <= ( + T8 154 )( + T6 209 ) ) )
(or ( <= ( + T6 334 )  ( + T8 154 ) ) ( <= ( + T8 207 )( + T6 296 ) ) )
(or ( <= ( + T6 358 )  ( + T8 207 ) ) ( <= ( + T8 268 )( + T6 334 ) ) )
(or ( <= ( + T7 78 ) T8 ) ( <= ( + T8 4 ) T7 ) )
(or ( <= ( + T7 147 )  ( + T8 4 ) ) ( <= ( + T8 29 )( + T7 78 ) ) )
(or ( <= ( + T7 247 )  ( + T8 29 ) ) ( <= ( + T8 70 )( + T7 147 ) ) )
(or ( <= ( + T7 306 )  ( + T8 70 ) ) ( <= ( + T8 154 )( + T7 247 ) ) )
(or ( <= ( + T7 330 )  ( + T8 154 ) ) ( <= ( + T8 207 )( + T7 306 ) ) )
(or ( <= ( + T7 402 )  ( + T8 207 ) ) ( <= ( + T8 268 )( + T7 330 ) ) )
( <= ( + T1 371 ) Z)
( <= ( + T2 157 ) Z)
( <= ( + T3 321 ) Z)
( <= ( + T4 183 ) Z)
( <= ( + T5 351 ) Z)
( <= ( + T6 358 ) Z)
( <= ( + T7 402 ) Z)
( <= ( + T8 268 ) Z)
( >= T1 0 )
( >= T2 0 )
( >= T3 0 )
( >= T4 0 )
( >= T5 0 )
( >= T6 0 )
( >= T7 0 )
( >= T8 0 )
) )
)(=> $phi $goal))))